8
0 411 80 819 4 9 30 8
411 0 34 771 0 295 210 304
80 34 0 510 631 66 67 267
819 771 510 0 86 843 385 747
4 0 631 86 0 626 116 75
9 295 66 843 626 0 225 44
30 210 67 385 116 225 0 5
8 304 267 747 75 44 5 0